Normalized Data/p01_1030_tsplib0_normalized_split0.vrp
NAME:p01_1030_tsplib0_NORMALIZED_split
BEST_KNOWN: 0
COMMENT: 0
DIMENSION: 158
CAPACITY: 100
EDGE_WEIGHT_FORMAT: FUNCTION
EDGE_WEIGHT_TYPE: EXACT_2D
NODE_COORD_SECTION
1 0.00000 0.00000
2 7 12
3 7 12
4 7 12
5 19 9
6 19 9
7 19 9
8 19 9
9 22 24
10 22 24
11 22 24
12 22 24
13 22 24
14 -10 -14
15 10 -10
16 10 -10
17 10 -10
18 10 -10
19 10 -10
20 -9 7
21 -9 7
22 -9 7
23 -13 23
24 -13 23
25 -13 23
26 -13 23
27 -13 23
28 -13 23
29 1 22
30 1 22
31 22 -7
32 22 -7
33 22 -7
34 22 -7
35 21 -19
36 12 1
37 12 1
38 1 -8
39 1 -8
40 1 -8
41 1 -8
42 -25 -15
43 -25 -15
44 -25 -15
45 -25 -15
46 -25 -15
47 -18 2
48 6 -24
49 6 -24
50 6 -24
51 6 -24
52 22 1
53 22 1
54 -3 -17
55 -3 -17
56 -13 -7
57 -17 -27
58 -17 -27
59 -17 -27
60 27 18
61 32 2
62 32 2
63 12 17
64 12 17
65 12 17
66 -14 17
67 -14 17
68 -14 17
69 -22 12
70 -22 12
71 -23 -2
72 -23 -2
73 -3 28
74 -3 28
75 -3 28
76 -3 28
77 -3 28
78 0 8
79 13 27
80 13 27
81 28 8
82 28 8
83 28 8
84 28 -13
85 28 -13
86 7 29
87 7 29
88 7 29
89 8 6
90 8 6
91 16 -30
92 16 -30
93 16 -30
94 31 -7
95 31 -7
96 31 -7
97 31 -7
98 32 23
99 32 23
100 32 23
101 33 29
102 33 29
103 33 29
104 33 29
105 33 29
106 33 29
107 2 -18
108 2 -18
109 15 -5
110 15 -5
111 15 -5
112 15 -5
113 15 -5
114 15 -5
115 29 -25
116 29 -25
117 29 -25
118 29 -25
119 29 -25
120 29 -25
121 -25 -34
122 -25 -34
123 -25 -34
124 -20 -23
125 -20 -23
126 -20 -23
127 -20 -23
128 -9 -30
129 -9 -30
130 -25 24
131 -25 24
132 -25 24
133 0 -25
134 0 -25
135 0 -25
136 0 -25
137 9 -30
138 9 -30
139 9 -30
140 9 -30
141 2 -1
142 2 -1
143 -5 -8
144 -5 -8
145 -5 -8
146 -5 -8
147 -5 -8
148 -5 -8
149 -5 15
150 -5 15
151 -5 15
152 -5 15
153 -5 15
154 18 -12
155 18 -12
156 18 -12
157 26 -3
158 26 -3
DEMAND_SECTION
1 0
2 20
3 5
4 1
5 10
6 5
7 1
8 1
9 10
10 1
11 1
12 1
13 1
14 20
15 20
16 5
17 1
18 1
19 1
20 20
21 5
22 1
23 10
24 5
25 1
26 1
27 1
28 1
29 10
30 1
31 10
32 1
33 1
34 1
35 10
36 20
37 5
38 10
39 5
40 1
41 1
42 10
43 5
44 1
45 1
46 1
47 20
48 20
49 1
50 1
51 1
52 10
53 5
54 10
55 1
56 20
57 20
58 5
59 1
60 20
61 10
62 1
63 20
64 1
65 1
66 20
67 1
68 1
69 20
70 1
71 20
72 5
73 20
74 1
75 1
76 1
77 1
78 10
79 20
80 5
81 10
82 1
83 1
84 10
85 1
86 20
87 5
88 1
89 20
90 5
91 20
92 5
93 1
94 10
95 1
96 1
97 1
98 20
99 5
100 1
101 10
102 5
103 1
104 1
105 1
106 1
107 20
108 5
109 10
110 5
111 1
112 1
113 1
114 1
115 10
116 5
117 1
118 1
119 1
120 1
121 20
122 5
123 1
124 10
125 1
126 1
127 1
128 10
129 1
130 20
131 1
132 1
133 20
134 1
135 1
136 1
137 20
138 5
139 1
140 1
141 10
142 5
143 10
144 5
145 1
146 1
147 1
148 1
149 10
150 5
151 1
152 1
153 1
154 20
155 5
156 1
157 20
158 1
DEPOT_SECTION
1
-1
EOF