Normalized Data/p01_1030_tsplib0_normalized_split0.sol
157 -6 7 4 5 82 81 80 61 60 93 95 94 96 84 83 156 157 51 52 -16 15 17 14 18 153 155 154 108 113 110 112 109 111 35 36 -20 21 19 77 3 1 2 89 88 -33 30 32 31 34 117 119 114 115 116 118 92 91 90 139 137 136 138 -40 38 39 37 106 107 47 49 48 50 134 132 133 135 54 53 -44 43 42 45 41 126 124 123 125 120 121 122 57 58 56 127 128 143 144 -46 71 70 55 13 142 145 146 147 -59 99 97 98 103 101 100 102 104 105 9 8 12 11 10 62 -64 63 79 78 86 85 87 72 73 76 74 75 28 29 151 152 149 -68 69 131 130 129 27 22 24 26 23 25 67 66 65 148 150 -140 141 0 





OBJ=
756.306
BEST_KNOWN=
0.000